NAME : kroC100-C-5-1-a__baseline_same_priority_ls20__25441.tour
COMMENT : Length = 25441.000
COMMENT : Generated by evaluate_ctspd.py for baseline_same_priority_ls20
TYPE : TOUR
DIMENSION : 100
TOUR_SECTION
44
1
53
24
32
26
7
82
78
9
61
37
29
46
10
92
66
16
51
48
84
11
52
87
96
97
81
45
33
100
74
57
36
14
69
3
73
59
41
89
21
70
76
23
30
68
35
2
91
94
95
86
5
43
56
71
50
62
83
72
39
38
28
88
98
58
34
90
25
17
8
22
75
54
6
80
77
65
31
47
67
55
42
20
64
79
13
15
27
85
40
12
18
49
93
4
60
99
19
63
-1
EOF
